problems/csplib-prob015/SchursLemma-models/noch/O2/lingeling/model_1_3-7-14-solution000001.solution
language Essence 1.3

letting boxes be partition({1, 9, 11}, {2}, {3}, {4, 6, 13}, {5, 7, 14}, {8, 12}, {10})
