problems/csplib-prob015/SchursLemma-models/noch/O2/minion/model_1_3-7-14-solution000001.eprime-solution
language ESSENCE' 1.0

letting boxes_PartitionAsSet_ExplicitR5_ExplicitVarSizeWithMarker_Marker be [1, 1, 1, 1, 1, 1, 8; int(1..7)]
letting boxes_PartitionAsSet_ExplicitR5_ExplicitVarSizeWithMarker_Values be
        [[1, 1, 1, 1, 1, 1, 1, 1, 1, 1, 1, 1, 1, 1; int(1..14)], [2, 1, 1, 1, 1, 1, 1, 1, 1, 1, 1, 1, 1, 1; int(1..14)],
         [3, 1, 1, 1, 1, 1, 1, 1, 1, 1, 1, 1, 1, 1; int(1..14)], [4, 1, 1, 1, 1, 1, 1, 1, 1, 1, 1, 1, 1, 1; int(1..14)],
         [5, 1, 1, 1, 1, 1, 1, 1, 1, 1, 1, 1, 1, 1; int(1..14)], [6, 1, 1, 1, 1, 1, 1, 1, 1, 1, 1, 1, 1, 1; int(1..14)],
         [7, 8, 9, 10, 11, 12, 13, 14, 1, 1, 1, 1, 1, 1; int(1..14)]; int(1..7)]
